letting np_cars_plus be 173
letting np_classes be 132
letting np_options be 111
letting quantity_range_min be 1
letting quantity_range_delta be 175
letting maxcars_range_min be 1
letting maxcars_range_delta be 0
letting blksize_delta_range_min be 4
letting blksize_delta_range_delta be 7
letting usage_card_min be 466
letting usage_card_delta be 68